benchmarks/bfuzz0/27346242532360283951726188671488217924.smt2
(set-logic QF_FP)
(declare-const x0 (_ FloatingPoint 8 24))
(declare-const x1 (_ FloatingPoint 8 24))
(declare-const x2 (_ FloatingPoint 8 24))
(declare-const x3 (_ FloatingPoint 8 24))
(declare-const x4 (_ FloatingPoint 8 24))
(declare-const x5 (_ FloatingPoint 8 24))
(declare-const x6 (_ FloatingPoint 8 24))
(declare-const x7 (_ FloatingPoint 8 24))
(declare-const x8 (_ FloatingPoint 8 24))
(declare-const x9 (_ FloatingPoint 8 24))
(declare-const x10 (_ FloatingPoint 8 24))
(declare-const x11 (_ FloatingPoint 8 24))
(assert (fp.geq (fp.sub RNE (fp.mul RNE x8 x6) (fp.div RNE x0 x8)) (fp.mul RNE (fp.mul RNE x5 x2) (fp.add RNE x11 x10))))
(assert (fp.eq (fp.add RNE (fp.div RNE x9 x11) (fp.mul RNE x1 x8)) (fp.sub RNE (fp.mul RNE x1 x2) (fp.neg x10))))
(assert (fp.leq (fp.div RNE (fp.add RNE x6 x10) (fp.mul RNE x4 x3)) (fp.neg (fp.sub RNE x11 x4))))
(assert (fp.gt (fp.sub RNE (fp.neg x7) (fp.mul RNE x4 x7)) (fp.sub RNE (fp.neg x6) (fp.sub RNE x6 x1))))
(assert (fp.leq (fp.sub RNE (fp.mul RNE x5 x1) (fp.add RNE x5 x6)) (fp.div RNE (fp.add RNE x10 x6) (fp.neg x8))))
(assert (fp.eq (fp.add RNE (fp.sub RNE x5 x4) (fp.sub RNE x11 x7)) (fp.add RNE (fp.add RNE x3 x1) (fp.sub RNE x0 x9))))
(assert (fp.lt (fp.add RNE (fp.add RNE x1 x11) (fp.neg x3)) (fp.add RNE (fp.sub RNE x10 x7) (fp.div RNE x6 x1))))
(assert (fp.eq (fp.neg (fp.mul RNE x8 x0)) (fp.sub RNE (fp.mul RNE x9 x5) (fp.neg x4))))
(assert (fp.eq (fp.neg (fp.mul RNE x2 x6)) (fp.div RNE (fp.add RNE x3 x8) (fp.div RNE x2 x0))))
(assert (fp.lt (fp.sub RNE (fp.mul RNE x5 x8) (fp.sub RNE x7 x3)) (fp.neg (fp.neg x1))))
(assert (fp.lt (fp.neg (fp.mul RNE x10 x4)) (fp.mul RNE (fp.neg x0) (fp.add RNE x8 x10))))
(check-sat)
