db/data/27346242532360283951726188671488217924.z3.out
sat
-------------------
1836.215207343
